
******************************************************************************
This program contains Ipopt, a library for large-scale nonlinear optimization.
 Ipopt is released as open source code under the Eclipse Public License (EPL).
         For more information visit http://projects.coin-or.org/Ipopt

This version of Ipopt was compiled from source code available at
    https://github.com/IDAES/Ipopt as part of the Institute for the Design of
    Advanced Energy Systems Process Systems Engineering Framework (IDAES PSE
    Framework) Copyright (c) 2018-2019. See https://github.com/IDAES/idaes-pse.

This version of Ipopt was compiled using HSL, a collection of Fortran codes
    for large-scale scientific computation.  All technical papers, sales and
    publicity material resulting from use of the HSL codes within IPOPT must
    contain the following acknowledgement:
        HSL, a collection of Fortran codes for large-scale scientific
        computation. See http://www.hsl.rl.ac.uk.
******************************************************************************

This is Ipopt version 3.13.2, running with linear solver ma27.

Number of nonzeros in equality constraint Jacobian...:     1336
Number of nonzeros in inequality constraint Jacobian.:        0
Number of nonzeros in Lagrangian Hessian.............:     1696

Total number of variables............................:      512
                     variables with only lower bounds:      128
                variables with lower and upper bounds:      320
                     variables with only upper bounds:        0
Total number of equality constraints.................:      508
Total number of inequality constraints...............:        0
        inequality constraints with only lower bounds:        0
   inequality constraints with lower and upper bounds:        0
        inequality constraints with only upper bounds:        0

iter    objective    inf_pr   inf_du lg(mu)  ||d||  lg(rg) alpha_du alpha_pr  ls
   0  0.0000000e+00 1.99e+00 3.80e-13  -1.0 0.00e+00    -  0.00e+00 0.00e+00   0
   1  4.5047043e-01 3.75e+01 1.23e+06  -1.0 2.93e+06    -  5.27e-02 2.90e-02f  3
   2  2.1188256e+01 2.32e+01 2.24e+06  -1.0 9.14e+05    -  1.17e-01 3.81e-01h  1
   3  2.1063374e+01 2.30e+01 2.22e+06  -1.0 5.50e+05    -  4.38e-01 6.93e-03h  1
   4  2.1067099e+01 2.30e+01 2.22e+06  -1.0 6.97e+05  -4.0 3.46e-01 2.15e-04h  1
   5  2.9968416e+01 1.72e+01 3.26e+06  -1.0 7.59e+05  -4.5 3.32e-01 2.54e-01h  1
   6  2.9996844e+01 1.71e+01 3.25e+06  -1.0 4.76e+05  -5.0 3.29e-01 2.27e-03h  1
   7  2.9766515e+01 1.69e+01 3.19e+06  -1.0 1.41e+06  -5.4 1.78e-01 1.52e-02h  1
   8  2.9020799e+01 1.69e+01 3.19e+06  -1.0 7.57e+06  -5.9 6.27e-02 1.24e-03h  1
   9  4.0716480e+01 1.31e+01 2.13e+06  -1.0 1.48e+06  -5.5 1.22e-01 2.22e-01h  1
iter    objective    inf_pr   inf_du lg(mu)  ||d||  lg(rg) alpha_du alpha_pr  ls
  10  4.8653408e+01 4.76e+01 1.65e+06  -1.0 4.70e+06    -  1.57e-02 3.96e-01F  1
  11  4.8826638e+01 4.74e+01 1.64e+06  -1.0 4.60e+05  -6.0 1.98e-04 4.45e-03f  1
  12  4.8823553e+01 4.74e+01 1.64e+06  -1.0 1.26e+06  -6.4 8.01e-01 1.19e-04h  1
  13  4.9350617e+01 4.74e+01 1.64e+06  -1.0 8.42e+06  -6.9 4.43e-02 3.00e-04H  1
  14  1.6567055e+02 3.64e+01 1.52e+06  -1.0 1.58e+06  -7.4 1.03e-02 2.33e-01h  1
  15  1.1954801e+02 3.10e+01 1.86e+06  -1.0 8.42e+06  -7.0 1.57e-04 1.47e-01f  1
  16  1.6500984e+02 2.70e+01 1.70e+06  -1.0 1.66e+06  -6.5 2.34e-01 1.31e-01h  2
  17  1.8056376e+02 2.42e+01 2.45e+06  -1.0 1.01e+06  -6.1 1.62e-02 1.01e-01h  3
  18  1.8056492e+02 2.42e+01 2.45e+06  -1.0 1.13e+05  -3.9 2.99e-01 4.80e-04H  1
  19  1.7971101e+02 2.27e+01 5.36e+06  -1.0 2.89e+05  -4.4 5.58e-02 6.19e-02f  5
iter    objective    inf_pr   inf_du lg(mu)  ||d||  lg(rg) alpha_du alpha_pr  ls
  20  1.7971163e+02 2.27e+01 5.36e+06  -1.0 3.07e+05  -3.0 6.15e-01 4.08e-05h  1
  21  1.8281052e+02 1.91e+01 2.32e+07  -1.0 2.79e+05  -3.5 6.79e-01 1.59e-01h  3
  22  2.1391870e+02 1.79e+01 2.18e+07  -1.0 1.34e+06    -  4.97e-01 6.33e-02h  2
  23  2.3885127e+02 1.70e+01 2.08e+07  -1.0 1.28e+06    -  6.33e-01 4.97e-02h  2
  24  2.4821728e+02 1.68e+01 2.06e+07  -1.0 1.57e+06    -  9.90e-01 1.50e-02h  3
  25  2.6704859e+02 1.46e+01 1.77e+07  -1.0 4.99e+05    -  9.78e-01 1.31e-01h  2
  26  2.9946266e+02 9.50e+00 2.05e+07  -1.0 6.09e+05    -  9.92e-01 3.47e-01h  1
  27  3.0036329e+02 9.50e+00 2.05e+07  -1.0 2.31e+06    -  8.16e-03 2.68e-04H  1
  28  3.0034090e+02 9.48e+00 2.05e+07  -1.0 2.47e+06    -  1.18e-01 1.97e-03h  2
  29  3.0033705e+02 9.48e+00 2.05e+07  -1.0 1.98e+06  -4.0 1.18e-01 3.29e-04h  2
iter    objective    inf_pr   inf_du lg(mu)  ||d||  lg(rg) alpha_du alpha_pr  ls
  30  3.0008107e+02 9.43e+00 2.04e+07  -1.0 2.43e+06    -  1.26e-01 5.15e-03h  2
  31  2.9957989e+02 9.35e+00 2.02e+07  -1.0 2.30e+06    -  1.54e-03 8.17e-03F  1
  32  2.9957989e+02 9.35e+00 2.02e+07  -1.0 5.99e+10  -4.5 2.90e-10 1.79e-12f 12
  33r 2.9957989e+02 9.35e+00 1.00e+03   1.0 0.00e+00  -4.9 0.00e+00 5.48e-17R 27
  34r 2.9957997e+02 1.11e+01 9.30e+10   1.0 8.75e+03    -  5.36e-02 1.06e-03f  1
MA27BD returned iflag=-4 and requires more memory.
 Increase liw from 21955 to 43910 and la from 25360 to 51636 and factorize again.
  35r 2.9957997e+02 1.22e+01 2.94e+09   1.0 2.22e-01   9.5 2.44e-03 6.48e-03f  1
  36r 2.9957997e+02 1.05e+01 2.06e+17   1.0 4.60e-02   9.0 3.21e-02 5.32e-02f  1
  37r 2.9957997e+02 9.64e+00 9.25e+16   1.0 8.06e-01  10.8 5.03e-01 8.23e-05h  2
  38r 2.9957997e+02 2.90e+00 1.08e+08   1.0 1.00e-01   9.8 2.52e-01 2.65e-03h  1
  39  2.9958006e+02 1.17e+01 1.30e+13  -1.0 1.68e+11    -  3.06e-12 8.14e-11f  5
iter    objective    inf_pr   inf_du lg(mu)  ||d||  lg(rg) alpha_du alpha_pr  ls
  40  2.9958089e+02 9.64e+00 3.57e+26  -1.0 1.03e+12   0.0 3.53e-12 9.12e-12h  1
Scaling factors are invalid - setting them all to 1.
Scaling factors are invalid - setting them all to 1.
Scaling factors are invalid - setting them all to 1.
Scaling factors are invalid - setting them all to 1.
Scaling factors are invalid - setting them all to 1.
Scaling factors are invalid - setting them all to 1.
Scaling factors are invalid - setting them all to 1.
Scaling factors are invalid - setting them all to 1.
Scaling factors are invalid - setting them all to 1.
Scaling factors are invalid - setting them all to 1.
Scaling factors are invalid - setting them all to 1.
Scaling factors are invalid - setting them all to 1.
Scaling factors are invalid - setting them all to 1.
Scaling factors are invalid - setting them all to 1.
Scaling factors are invalid - setting them all to 1.
Scaling factors are invalid - setting them all to 1.
Scaling factors are invalid - setting them all to 1.
Scaling factors are invalid - setting them all to 1.
WARNING: Problem in step computation; switching to emergency mode.
  41r 2.9958089e+02 9.64e+00 9.99e+02   1.0 0.00e+00  18.3 0.00e+00 0.00e+00R  1
  42r 2.9958096e+02 1.17e+01 9.99e+02   1.0 9.64e+03    -  3.77e-04 9.90e-04f  1
  43r 2.9958105e+02 1.05e+01 6.65e+11   1.0 9.07e+02    -  1.07e-03 1.51e-03f  1
  44r 2.9958105e+02 9.59e+00 1.04e+15   1.0 1.34e+00   8.4 3.58e-03 2.78e-02h  1
  45r 2.9958105e+02 9.59e+00 6.19e+14   1.0 1.15e+00   8.4 8.92e-04 6.83e-05h  3
WARNING: Problem in step computation; switching to emergency mode.
  46r 2.9958105e+02 9.59e+00 6.19e+14   1.0 1.15e+00  19.2 0.00e+00 0.00e+00R  1
WARNING: Problem in step computation; switching to emergency mode.
Restoration phase is called at point that is almost feasible,
  with constraint violation 0.000000e+00. Abort.
Restoration phase in the restoration phase failed.

Number of Iterations....: 46

                                   (scaled)                 (unscaled)
Objective...............:   2.9958105369525458e+02    2.9958105369525458e+02
Dual infeasibility......:   6.1949103041176488e+14    6.1949103041176488e+14
Constraint violation....:   9.5875781400083770e+00    9.5875781400083770e+00
Complementarity.........:   9.9409210731389213e+08    9.9409210731389213e+08
Overall NLP error.......:   5.1072503447180039e+12    6.1949103041176488e+14


Number of objective function evaluations             = 139
Number of objective gradient evaluations             = 38
Number of equality constraint evaluations            = 139
Number of inequality constraint evaluations          = 0
Number of equality constraint Jacobian evaluations   = 48
Number of inequality constraint Jacobian evaluations = 0
Number of Lagrangian Hessian evaluations             = 47
Total CPU secs in IPOPT (w/o function evaluations)   =      0.319
Total CPU secs in NLP function evaluations           =      1.695

EXIT: Restoration Failed!
